NAME: eil101
TYPE: TOUR
DIMENSION: 101
TOUR_SECTION
1
50
76
77
3
79
33
81
9
51
71
35
65
78
34
68
29
24
80
12
26
40
21
73
72
74
22
41
75
56
4
23
39
67
58
13
94
6
89
95
97
87
2
57
15
43
42
92
37
98
100
59
99
5
60
18
52
83
8
45
46
82
7
88
31
70
30
20
66
62
10
90
32
63
11
19
48
47
36
49
64
84
17
93
85
61
16
44
14
38
86
91
96
53
101
27
28
54
55
25
69
EOF
